8
0,295,120,172,662,545,604,486
295,0,394,529,243,594,736,711
120,394,0,112,501,852,967,417
172,529,112,0,456,879,918,887
662,243,501,456,0,334,208,658
545,594,852,879,334,0,862,836
604,736,967,918,208,862,0,383
486,711,417,887,658,836,383,0
1
5